5 2.85 2.85 3.25 3.45 2.5 2.75 4 3.05
10 4.25 4.35 4.8 5.85 3.5 4.1 5 6.45
15 5.95 5.65 6.2 8.1 4.45 5.05 7 9.65
20 7.2 6.9 7.8 10.1 4.7 5.7 8 12.65
25 8.1 8.4 9.4 13.15 5.4 6.5 9 15.5
30 9.6 10.75 11.45 16.3 6 7.5 10 19
35 10.6 10.85 12.8 18.75 6.15 7.95 11 21.5
40 12 12.3 13.65 22.05 6.85 7.95 12 24.35
45 12.65 13.2 15.05 24.55 6.9 7.9 12 27
